c Este es el tablero 2 en CNF
p cnf 64 160
1 0 6 0 11 0 16 0 19 0 24 0 30 0 36 0 55 0 61 0
25 26 27 28 0 
37 38 39 40 0 
41 42 43 44 0 
45 46 47 48 0 
49 50 51 52 0 
57 58 59 60 0 
-25 -17 0 -25 -21 0 -25 -29 0 -26 -18 0 -26 -22 0 -26 -30 0 -27 -19 0 -27 -23 0 -27 -31 0 -28 -20 0 -28 -24 0 -28 -32 0 
-37 -33 0 -37 -41 0 -37 -45 0 -38 -34 0 -38 -42 0 -38 -46 0 -39 -35 0 -39 -43 0 -39 -47 0 -40 -36 0 -40 -44 0 -40 -48 0 
-41 -33 0 -41 -37 0 -41 -45 0 -42 -34 0 -42 -38 0 -42 -46 0 -43 -35 0 -43 -39 0 -43 -47 0 -44 -36 0 -44 -40 0 -44 -48 0 
-45 -33 0 -45 -37 0 -45 -41 0 -46 -34 0 -46 -38 0 -46 -42 0 -47 -35 0 -47 -39 0 -47 -43 0 -48 -36 0 -48 -40 0 -48 -44 0 
-49 -53 0 -49 -57 0 -49 -61 0 -50 -54 0 -50 -58 0 -50 -62 0 -51 -55 0 -51 -59 0 -51 -63 0 -52 -56 0 -52 -60 0 -52 -64 0 
-57 -49 0 -57 -53 0 -57 -61 0 -58 -50 0 -58 -54 0 -58 -62 0 -59 -51 0 -59 -55 0 -59 -63 0 -60 -52 0 -60 -56 0 -60 -64 0 
-25 -9 0 -25 -41 0 -25 -57 0 -26 -10 0 -26 -42 0 -26 -58 0 -27 -11 0 -27 -43 0 -27 -59 0 -28 -12 0 -28 -44 0 -28 -60 0 
-37 -5 0 -37 -21 0 -37 -53 0 -38 -6 0 -38 -22 0 -38 -54 0 -39 -7 0 -39 -23 0 -39 -55 0 -40 -8 0 -40 -24 0 -40 -56 0 
-41 -9 0 -41 -25 0 -41 -57 0 -42 -10 0 -42 -26 0 -42 -58 0 -43 -11 0 -43 -27 0 -43 -59 0 -44 -12 0 -44 -28 0 -44 -60 0 
-45 -13 0 -45 -29 0 -45 -61 0 -46 -14 0 -46 -30 0 -46 -62 0 -47 -15 0 -47 -31 0 -47 -63 0 -48 -16 0 -48 -32 0 -48 -64 0 
-49 -1 0 -49 -17 0 -49 -33 0 -50 -2 0 -50 -18 0 -50 -34 0 -51 -3 0 -51 -19 0 -51 -35 0 -52 -4 0 -52 -20 0 -52 -36 0 
-57 -9 0 -57 -25 0 -57 -41 0 -58 -10 0 -58 -26 0 -58 -42 0 -59 -11 0 -59 -27 0 -59 -43 0 -60 -12 0 -60 -28 0 -60 -44 0 

